Name: EasyAcademy21
Courses: 86
Rooms: 47
Days: 5
Periods_per_day: 6
Curricula: 15
Min_Max_Daily_Lectures: 2 5
UnavailabilityConstraints: 0
RoomConstraints: 0

COURSES:
c35199 t440 1 1 0 0
c35200 t440 1 1 0 0
c35226 t464 3 1 0 0
c35399 t483 3 1 0 0
c35400 no_teacher1 1 1 0 0
c35401 no_teacher2 1 1 0 0
c35402 t418 3 1 0 0
c35403 t488 3 1 0 0
c35404 t451 3 1 0 0
c35405 t451 3 1 0 0
c35406 t488 3 1 0 0
c35407 t488 3 1 0 0
c35408 t434 3 1 0 0
c35409 t434 1 1 0 0
c35410 t431 3 1 200 0
c35411 t431 4 3 0 0
c35412 no_teacher3 3 1 0 0
c35413 t483 4 2 0 0
c35414 t455 4 2 0 0
c35415 t458 4 2 0 0
c35416 t456 4 2 0 0
c35417 t419 3 1 0 0
c35418 t419 3 1 0 0
c35419 t459 3 2 0 0
c35420 t430 4 2 0 1
c35421 t430 4 2 0 0
c35422 t418 4 2 0 0
c35423 t435 3 1 0 0
c35424 t436 3 1 0 0
c35425 t3944 3 1 0 0
c35426 t6578 3 1 0 0
c35428 t460 3 1 0 0
c35430 t455 3 1 0 0
c35431 t455 3 1 0 0
c35432 t412 2 1 0 0
c35433 t412 2 1 0 0
c35434 t412 2 1 0 0
c35435 t412 2 1 0 0
c35436 t437 4 2 0 0
c35437 t11076 2 1 0 0
c35438 t6573 2 2 0 0
c35439 t11076 2 1 0 0
c35440 t436 3 1 0 0
c35441 t436 3 1 0 0
c35442 no_teacher4 1 1 0 0
c35443 no_teacher5 1 1 0 0
c35444 no_teacher6 1 1 0 0
c35445 t6572 3 1 0 0
c35446 t6572 3 1 0 0
c35447 t6572 3 1 0 0
c35448 t412 1 1 0 0
c35449 t412 1 1 0 0
c35450 t424 1 1 0 0
c35451 t417 1 1 0 0
c35452 t412 1 1 0 0
c35453 t412 1 1 0 0
c35454 t480 3 1 0 0
c35455 t420 3 1 0 0
c35456 t441 3 1 0 0
c35457 t443 3 1 0 0
c35458 t443 3 1 0 0
c35459 t466 3 1 0 0
c35460 t3947 3 1 0 0
c35461 t481 3 1 0 0
c35462 t450 3 1 0 0
c35463 t450 3 1 0 0
c35464 t412 3 1 0 0
c35465 t412 3 1 0 0
c35466 t440 2 1 0 0
c35467 t440 2 1 0 0
c35468 t437 3 1 0 0
c35469 t439 3 1 0 0
c35470 t429 3 1 0 0
c35471 t416 3 1 0 0
c35472 t416 3 1 0 0
c35473 t417 2 1 0 0
c35474 t417 2 1 0 0
c35475 t417 3 1 0 0
c35476 t481 3 1 0 0
c35477 t441 3 1 0 0
c35478 t441 3 1 0 0
c35479 t447 3 1 0 0
c35480 no_teacher7 1 1 0 0
c35481 no_teacher8 1 1 0 0
c35482 no_teacher9 1 1 0 0
c35483 no_teacher10 1 1 0 0

ROOMS:
r1940 199 0
r1941 149 0
r1659 99 0
r1660 72 0
r1661 50 0
r1662 30 0
r1663 50 0
r1664 49 0
r1665 50 0
r1666 50 0
r1667 0 0
r1668 0 0
r1669 0 0
r1670 0 0
r1942 310 1
r1935 345 1
r1934 215 1
r1696 310 1
r1936 165 1
r1943 309 1
r1938 358 1
r2117 403 1
r1937 220 1
r1930 265 1
r1939 187 1
r1928 232 1
r1929 183 1
r1931 229 1
r2118 274 1
r1944 318 1
r1932 367 1
r1933 187 1
r1671 180 1
r1672 49 1
r1673 150 1
r1674 136 1
r1694 130 1
r1675 35 1
r1676 171 1
r1677 138 1
r1678 49 1
r1679 64 1
r1680 180 1
r1681 138 1
r1682 45 1
r1683 45 1
r1684 45 1

CURRICULA:
cu1332 4 c35403 c35478 c35421 c35422
cu1333 5 c35409 c35413 c35419 c35436 c35477
cu1334 9 c35412 c35428 c35402 c35426 c35433 c35435 c35444 c35462 c35474
cu1335 8 c35461 c35465 c35470 c35481 c35407 c35421 c35422 c35463
cu1336 8 c35406 c35411 c35479 c35480 c35420 c35431 c35464 c35472
cu1337 9 c35402 c35430 c35440 c35442 c35399 c35432 c35434 c35443 c35473
cu1338 4 c35226 c35426 c35428 c35476
cu1339 5 c35226 c35402 c35441 c35454 c35476
cu1340 7 c35400 c35401 c35414 c35437 c35445 c35458 c35467
cu1341 7 c35400 c35401 c35415 c35438 c35446 c35459 c35466
cu1342 7 c35400 c35401 c35416 c35439 c35447 c35460 c35466
cu1343 10 c35199 c35404 c35423 c35456 c35468 c35448 c35450 c35452 c35466 c35482
cu1344 10 c35200 c35405 c35424 c35457 c35469 c35448 c35450 c35452 c35467 c35482
cu1345 10 c35417 c35418 c35475 c35408 c35425 c35449 c35451 c35453 c35455 c35483
cu1346 10 c35410 c35417 c35418 c35471 c35408 c35449 c35451 c35453 c35455 c35483

UNAVAILABILITY_CONSTRAINTS:

ROOM_CONSTRAINTS:

END.
